Optimal - objective value 315.48000000
      0 C0000000           48100                      -0
      1 C0000001               9                      -0
      2 C0000002               1                      -0
      3 C0000003               2                      -0
      4 C0000004               2                      -0
      5 C0000005               4                      -0
      6 C0000006               4                      -0
      7 C0000007               1                      -0
      8 C0000008               1                      -0
      9 C0000009               1                      -0
      0 X0000000               0                    34.1
      1 X0000001               0                    18.5
      2 X0000002               0                      26
      3 X0000003               0                     9.7
      4 X0000004               0                    12.3
      5 X0000005               0                    29.5
      6 X0000006               0                     5.7
      7 X0000007               0                    10.1
      8 X0000008               0                     9.7
      9 X0000009               0                   13.52
     10 X0000010               1                    39.8
     11 X0000011               0                      10
     12 X0000012               0                     8.1
     13 X0000013               0                    17.1
     14 X0000014               0                    13.7
     15 X0000015               0                   16.24
     16 X0000016               0                      11
     17 X0000017               1                    42.6
     18 X0000018               0                     6.6
     19 X0000019               0                    11.4
     20 X0000020               0                    16.6
     21 X0000021               0                    13.1
     22 X0000022               1                      21
     23 X0000023               0                    15.2
     24 X0000024               0                   14.92
     25 X0000025               0                     6.4
     26 X0000026               0                    11.6
     27 X0000027               0                    11.6
     28 X0000028               1                   38.48
     29 X0000029               0                     9.6
     30 X0000030               0                    12.4
     31 X0000031               0                   16.72
     32 X0000032               0                    24.1
     33 X0000033               0                    10.3
     34 X0000034               0                    15.7
     35 X0000035               0                    33.3
     36 X0000036               0                    19.3
     37 X0000037               0                     8.4
     38 X0000038               0                    10.1
     39 X0000039               0                     8.9
     40 X0000040               0                    22.1
     41 X0000041               0                      16
     42 X0000042               0                    18.1
     43 X0000043               0                     5.1
     44 X0000044               0                       6
     45 X0000045               0                      14
     46 X0000046               0                     7.6
     47 X0000047               0                   16.86
     48 X0000048               0                    12.3
     49 X0000049               0                    11.2
     50 X0000050               0                    20.3
     51 X0000051               1                    30.7
     52 X0000052               1                      30
     53 X0000053               0                    16.6
     54 X0000054               0                      21
     55 X0000055               0                    28.2
     56 X0000056               0                     7.5
     57 X0000057               0                    21.6
     58 X0000058               0                    11.8
     59 X0000059               0                      10
     60 X0000060               0                   25.94
     61 X0000061               0                      39
     62 X0000062               0                    29.8
     63 X0000063               0                    11.9
     64 X0000064               0                    12.6
     65 X0000065               0                     8.3
     66 X0000066               0                    12.7
     67 X0000067               0                   20.04
     68 X0000068               0                   27.26
     69 X0000069               0                     5.3
     70 X0000070               0                    21.3
     71 X0000071               0                    15.1
     72 X0000072               0                    21.7
     73 X0000073               0                    13.8
     74 X0000074               0                       6
     75 X0000075               0                       8
     76 X0000076               0                    12.8
     77 X0000077               0                     5.8
     78 X0000078               0                     5.4
     79 X0000079               0                       9
     80 X0000080               0                     6.7
     81 X0000081               1                    30.5
     82 X0000082               0                      31
     83 X0000083               0                   18.26
     84 X0000084               0                    11.2
     85 X0000085               0                    13.1
     86 X0000086               0                     7.1
     87 X0000087               0                    14.3
     88 X0000088               0                    16.4
     89 X0000089               0                    23.8
     90 X0000090               0                      30
     91 X0000091               0                    17.2
     92 X0000092               0                   13.84
     93 X0000093               1                    41.4
     94 X0000094               0                     8.1
     95 X0000095               0                    13.9
     96 X0000096               0                   20.26
     97 X0000097               0                    20.9
     98 X0000098               0                     6.9
     99 X0000099               0                    18.5
    100 X0000100               0                   35.98
    101 X0000101               0                    13.4
    102 X0000102               0                    25.3
    103 X0000103               0                     9.6
    104 X0000104               0                     5.1
    105 X0000105               0                     5.3
    106 X0000106               0                      15
    107 X0000107               0                    12.6
    108 X0000108               0                     8.1
    109 X0000109               0                    37.3
    110 X0000110               0                      20
    111 X0000111               0                   25.22
    112 X0000112               0                    24.6
    113 X0000113               0                   12.98
    114 X0000114               0                     9.5
    115 X0000115               0                     6.7
    116 X0000116               0                     8.1
    117 X0000117               0                    17.1
    118 X0000118               0                    21.1
    119 X0000119               1                      41
    120 X0000120               0                    22.7
    121 X0000121               0                    9.26
    122 X0000122               0                    23.7
    123 X0000123               0                   23.62
    124 X0000124               0                      21
    125 X0000125               0                     8.9
    126 X0000126               0                     7.6
    127 X0000127               0                     9.7
    128 X0000128               0                   17.64
    129 X0000129               0                    25.8
    130 X0000130               0                    11.3
    131 X0000131               0                   11.28
    132 X0000132               0                    17.7
    133 X0000133               0                     6.7
    134 X0000134               0                       8
    135 X0000135               0                      17
    136 X0000136               0                       9
    137 X0000137               0                    19.8
    138 X0000138               0                     8.8
    139 X0000139               0                    12.7
    140 X0000140               0                    15.8
    141 X0000141               0                   11.36
    142 X0000142               0                    13.1
    143 X0000143               0                     7.5
    144 X0000144               0                     9.6
    145 X0000145               0                       7
    146 X0000146               0                     9.8
    147 X0000147               0                     7.6
    148 X0000148               0                    11.4
    149 X0000149               0                    13.8
    150 X0000150               0                    25.2
    151 X0000151               0                   18.14
    152 X0000152               0                   28.44
    153 X0000153               0                    13.8
    154 X0000154               0                   12.94
    155 X0000155               0                     5.1
    156 X0000156               0                    22.6
    157 X0000157               0                    14.6
    158 X0000158               0                     8.2
    159 X0000159               0                    36.6
    160 X0000160               0                     5.5
    161 X0000161               0                    13.7
    162 X0000162               0                    11.6
    163 X0000163               0                    5.74
    164 X0000164               0                       8
    165 X0000165               0                     6.6
    166 X0000166               0                   34.26
    167 X0000167               0                     6.3
    168 X0000168               0                     8.7
    169 X0000169               0                     8.4
    170 X0000170               0                     9.5
    171 X0000171               0                   21.24
    172 X0000172               0                     8.8
    173 X0000173               0                    14.7
    174 X0000174               0                       7
    175 X0000175               0                     7.1
    176 X0000176               0                      33
    177 X0000177               0                     8.5
    178 X0000178               0                     5.5
    179 X0000179               0                       9
    180 X0000180               0                     8.3
    181 X0000181               0                     6.5
    182 X0000182               0                     6.1
